Route #1: 51 449 655 313 144 625 729 796 
Route #2: 866 854 68 516 214 819 634 632 53 106 
Route #3: 110 61 845 101 173 82 610 247 
Route #4: 650 613 921 686 941 894 108 297 
Route #5: 487 559 802 695 589 201 257 743 970 877 
Route #6: 89 104 319 93 967 986 223 635 
Route #7: 74 142 713 540 283 712 278 407 
Route #8: 527 704 253 459 28 790 751 
Route #9: 893 384 607 182 77 569 626 618 
Route #10: 697 775 299 455 461 721 898 844 753 478 
Route #11: 489 932 122 547 148 264 718 302 411 117 26 
Distance: 23614
